%chk=/home/nathalia.rosa/DPP-SUB/DPP-SUB-4a/CATION/DPP-SUB-4A-CATION.chk
# opt=tight freq b3lyp/6-31+g(d,p) nosymm geom=connectivity

Title Card Required

1 2
 N                  1.59567600    1.41643900   -0.18832900
 C                  0.22698300    1.79869900   -0.26071800
 C                  1.78466600    0.05246800   -0.21941700
 C                  0.47650600   -0.51132500   -0.27916700
 C                 -0.47650900    0.51137000   -0.27903800
 C                 -1.78466800   -0.05243400   -0.21938700
 C                 -0.22698500   -1.79865800   -0.26112600
 N                 -1.59567800   -1.41641300   -0.18863500
 O                 -0.15073100    2.95574300   -0.31644300
 O                  0.15072600   -2.95568800   -0.31715100
 H                 -2.32446700   -2.10027600   -0.34141800
 H                  2.32446500    2.10033900   -0.34094800
 C                  5.55550900   -0.60703400   -0.03489500
 C                  4.30020600    0.10681700    0.15017100
 C                  3.06416300   -0.57924700   -0.19215800
 C                  3.14338900   -1.93030600   -0.57982900
 H                  2.22772500   -2.47260700   -0.79133800
 C                  4.36924300   -2.60175100   -0.73201300
 H                  4.36574300   -3.63634300   -1.05698700
 C                  5.56581900   -1.95088000   -0.49050100
 H                  6.51270800   -2.46496800   -0.62589100
 C                  4.52016100    1.36552900    0.68981400
 H                  3.81151800    2.10211900    1.03801200
 C                  6.66063500    0.15082900    0.33993600
 H                  7.70265800   -0.13713900    0.30342700
 S                  6.19777900    1.68017400    0.93599400
 C                 -4.30020600   -0.10685100    0.15023400
 C                 -5.55550500    0.60705300   -0.03465500
 C                 -5.56581000    1.95100200   -0.48995700
 H                 -6.51269700    2.46512800   -0.62521800
 C                 -4.36923300    2.60191700   -0.73133800
 H                 -4.36572800    3.63658300   -1.05607900
 C                 -3.14338200    1.93042800   -0.57932200
 H                 -2.22771600    2.47277000   -0.79072200
 C                 -3.06416200    0.57928000   -0.19196100
 C                 -6.66063400   -0.15088200    0.34002200
 H                 -7.70265400    0.13710300    0.30359300
 C                 -4.52016600   -1.36567800    0.68960600
 H                 -3.81152700   -2.10234900    1.03764000
 S                 -6.19778400   -1.68036500    0.93573200

 1 2 1.0 3 1.5 12 1.0
 2 5 1.0 9 2.0
 3 4 1.5 15 1.5
 4 5 1.5 7 1.0
 5 6 1.5
 6 8 1.5 35 1.5
 7 8 1.0 10 2.0
 8 11 1.0
 9
 10
 11
 12
 13 14 1.0 20 1.5 24 1.5
 14 15 1.0 22 1.5
 15 16 1.5
 16 17 1.0 18 1.5
 17
 18 19 1.0 20 2.0
 19
 20 21 1.0
 21
 22 23 1.0 26 1.0
 23
 24 25 1.0 26 1.0
 25
 26
 27 28 1.0 35 1.0 38 1.5
 28 29 1.5 36 1.5
 29 30 1.0 31 2.0
 30
 31 32 1.0 33 1.5
 32
 33 34 1.0 35 1.5
 34
 35
 36 37 1.0 40 1.0
 37
 38 39 1.0 40 1.0
 39
 40

