%chk=DPP-SUB-6-OPT-FREQ.chk
# opt=tight freq b3lyp/6-31+g(d,p) geom=connectivity

Energy:

0 1
 N                  1.60520100    1.39153900    0.00015900
 C                  0.24991400    1.79779100    0.00014700
 C                  1.75604900    0.01351200    0.00013100
 C                  0.47524800   -0.53177100    0.00012300
 C                 -0.47527800    0.53182700    0.00013800
 C                 -1.75606600   -0.01351000    0.00008200
 C                 -0.24988500   -1.79773600    0.00008300
 N                 -1.60519300   -1.39150800    0.00006700
 O                 -0.11645000    2.97113200    0.00013300
 O                  0.11647800   -2.97107600    0.00008000
 H                 -2.38588100   -2.03861100   -0.00001600
 H                  2.38597400    2.03855900    0.00013300
 C                 -4.28958200   -0.10920900   -0.00003400
 C                 -5.56311700    0.58884200   -0.00010700
 C                 -5.61092600    2.01102000   -0.00011700
 H                 -6.56945800    2.51766800   -0.00020400
 C                 -4.41593500    2.69093000   -0.00004400
 H                 -4.41419600    3.77641600   -0.00002000
 C                 -3.15967800    2.02113600    0.00001400
 H                 -2.25083700    2.61791000    0.00005300
 C                 -3.05342400    0.63421300    0.00003000
 S                 -6.03815100   -1.76398800   -0.00007600
 N                 -4.42190000   -1.44163800   -0.00000100
 N                 -6.62207900   -0.23275000   -0.00013100
 C                  5.56311300   -0.58886100   -0.00004810
 C                  4.28957300    0.10919900    0.00004115
 C                  3.05342100   -0.63421200    0.00007000
 C                  3.15966200   -2.02113700    0.00001481
 H                  2.25081400   -2.61789700    0.00003986
 C                  4.41592100   -2.69095400   -0.00006773
 H                  4.41414800   -3.77643900   -0.00011897
 C                  5.61091100   -2.01106000   -0.00010161
 H                  6.56945900   -2.51767600   -0.00014663
 S                  6.03816501    1.76397700    0.00001747
 N                  6.62207000    0.23269400   -0.00007132
 N                  4.42190300    1.44161700    0.00008867

 1 2 1.0 3 1.0 12 1.0
 2 5 1.0 9 2.0
 3 4 1.5 27 1.0
 4 5 1.5 7 1.0
 5 6 1.5
 6 8 1.0 21 1.0
 7 8 1.0 10 2.0
 8 11 1.0
 9
 10
 11
 12
 13 14 1.0 21 1.5 23 1.5
 14 15 1.5 24 1.5
 15 16 1.0 17 2.0
 16
 17 18 1.0 19 1.5
 18
 19 20 1.0 21 1.5
 20
 21
 22 23 1.0 24 1.0
 23
 24
 25 26 1.0 32 1.5 35 1.5
 26 27 1.5 36 1.5
 27 28 1.5
 28 29 1.0 30 1.5
 29
 30 31 1.0 32 2.0
 31
 32 33 1.0
 33
 34 35 1.0 36 1.0
 35
 36

