%nprocshared=6
%chk=G:\Meu Drive\POS-DOC-IME\SUBSTITUINTES-DOADORES\DPP-substituido\DPP-SUB-7\DPP-SUB-7-ANION-CONT.chk
# opt freq b3lyp/6-31+g(d,p) geom=connectivity

Energy:

-1 2
 N                 -1.69889600   -1.27559900   -0.68757000
 C                 -0.36724400   -1.73044100   -0.59901600
 C                 -1.81156900    0.10432200   -0.71075500
 C                 -0.52422200    0.61654700   -0.63951800
 C                  0.40289900   -0.49391600   -0.55805900
 C                  1.69137100    0.01818800   -0.52839300
 C                  0.24577200    1.84849600   -0.68145700
 N                  1.58094900    1.39549000   -0.62603200
 O                 -0.05953400   -2.93255200   -0.60371000
 O                 -0.06337800    3.04954800   -0.75551300
 H                  2.39506600    2.00100000   -0.57924200
 H                 -2.51540400   -1.87774600   -0.75272500
 C                  4.23863600    0.11621900   -0.07437600
 C                  5.33081000   -0.59834100    0.54835600
 C                  5.27383300   -1.93911000    0.82822200
 H                  6.10027700   -2.44181000    1.32029200
 C                  4.07767300   -2.67721300    0.49684700
 H                  4.02851000   -3.72809300    0.77176800
 C                  3.01595100   -2.10913900   -0.12257700
 H                  2.11606500   -2.67904400   -0.33630900
 C                  3.03902400   -0.67205800   -0.59390800
 N                  4.34928700    1.40578500   -0.24641400
 C                 -5.17006000    0.46720900    0.74292900
 C                 -4.29661500   -0.08034900   -0.26812800
 C                 -3.16861800    0.77389400   -0.85098200
 C                 -3.10582700    2.16022100   -0.23895000
 H                 -2.28762900    2.79614100   -0.56434800
 C                 -3.98204900    2.58293800    0.70415800
 H                 -3.86933900    3.58208200    1.11839200
 C                 -5.04659100    1.75008200    1.21013100
 H                 -5.72505800    2.13788400    1.96350800
 N                 -4.51201800   -1.29656800   -0.69740200
 C                 -5.60571300   -1.94866500   -0.02646100
 H                 -5.25786600   -2.82760400    0.53104900
 H                 -6.36817000   -2.27542600   -0.74325500
 C                  5.59478800    1.94132300    0.23431100
 H                  6.15275900    2.43020900   -0.57369600
 H                  5.42272700    2.67726800    1.02861800
 S                 -6.39639100   -0.74173800    1.18571000
 S                  6.64140500    0.53898900    0.93193300
 H                 -3.38396500    0.86009100   -1.93781200
 H                  3.22637500   -0.73192400   -1.68705900

 1 2 1.0 3 1.0 12 1.0
 2 5 1.0 9 2.0
 3 4 1.5 25 1.0
 4 5 1.0 7 1.0
 5 6 1.5
 6 8 1.0 21 1.0
 7 8 1.0 10 2.0
 8 11 1.0
 9
 10
 11
 12
 13 14 1.5 21 1.0 22 2.0
 14 15 2.0 40 1.0
 15 16 1.0 17 1.5
 16
 17 18 1.0 19 2.0
 18
 19 20 1.0 21 1.0
 20
 21 42 1.0
 22 36 1.0
 23 24 1.5 30 2.0 39 1.0
 24 25 1.0 32 2.0
 25 26 1.0 41 1.0
 26 27 1.0 28 2.0
 27
 28 29 1.0 30 1.5
 29
 30 31 1.0
 31
 32 33 1.0
 33 34 1.0 35 1.0 39 1.0
 34
 35
 36 37 1.0 38 1.0 40 1.0
 37
 38
 39
 40
 41
 42

