%nprocshared=6
%chk=DPP-SUB-7-OPT-FREQ.chk
# opt=tight freq b3lyp/6-31+g(d,p) geom=connectivity

Energy:

0 1
 N                 -1.62547656   -1.37582878   -0.64728822
 C                 -0.27506156   -1.80744230   -0.63363575
 C                 -1.75429727   -0.00217121   -0.63630902
 C                 -0.48744878    0.53970492   -0.64329303
 C                  0.46924639   -0.54826119   -0.62889464
 C                  1.73651700   -0.00887000   -0.67186900
 C                  0.25884354    1.79669802   -0.72293912
 N                  1.60893881    1.36237857   -0.73100597
 O                  0.05693342   -2.98896780   -0.64134958
 O                 -0.06963984    2.97673593   -0.79075001
 H                  2.41347000    1.98313279   -0.76066956
 H                 -2.42759594   -1.99745378   -0.58774890
 C                  4.22593444    0.11106263   -0.06673397
 C                  5.23076368   -0.60978556    0.72809403
 C                  5.12825722   -1.94125476    0.96420520
 H                  5.86851473   -2.45798368    1.56685852
 C                  4.00140287   -2.69293788    0.43325930
 H                  3.93578859   -3.74905545    0.67787733
 C                  3.04495224   -2.13086147   -0.32819133
 H                  2.20430928   -2.71202147   -0.69433354
 C                  3.09862200   -0.67398900   -0.73934900
 N                  4.36688908    1.38139809   -0.21401610
 C                 -5.21590301    0.59227640    0.81293856
 C                 -4.22833956   -0.13310311    0.00125915
 C                 -3.12293188    0.64686859   -0.71461449
 C                 -3.08348851    2.11479067   -0.34549647
 H                 -2.25754160    2.69807820   -0.73930915
 C                 -4.02549031    2.68320556    0.42904782
 H                 -3.96686423    3.74577253    0.64582716
 C                 -5.12540114    1.93043463    1.01275167
 H                 -5.85488289    2.45268901    1.62369695
 N                 -4.36429316   -1.40606530   -0.12521879
 C                 -5.50116344   -1.94668445    0.57870077
 H                 -5.17319522   -2.67718743    1.32488420
 H                 -6.17936111   -2.44347829   -0.12218334
 C                  5.53018931    1.92238583    0.44519442
 H                  6.18847144    2.40489521   -0.28404730
 H                  5.23198265    2.66497558    1.19194457
 S                 -6.40587211   -0.54988143    1.43730866
 S                  6.45252120    0.53022983    1.29207912
 H                 -3.40291938    0.59929957   -1.78435374
 H                  3.36806329   -0.66674534   -1.81324914

 1 2 1.0 3 1.5 12 1.0
 2 5 1.0 9 2.0
 3 4 2.0 25 1.0
 4 5 1.0 7 1.0
 5 6 2.0
 6 8 1.5 21 1.0
 7 8 1.0 10 2.0
 8 11 1.0
 9
 10
 11
 12
 13 14 1.0 21 1.0 22 2.0
 14 15 2.0 40 1.0
 15 16 1.0 17 1.0
 16
 17 18 1.0 19 2.0
 18
 19 20 1.0 21 1.0
 20
 21 42 1.0
 22 36 1.0
 23 24 1.0 30 2.0 39 1.0
 24 25 1.0 32 2.0
 25 26 1.0 41 1.0
 26 27 1.0 28 2.0
 27
 28 29 1.0 30 1.0
 29
 30 31 1.0
 31
 32 33 1.0
 33 34 1.0 35 1.0 39 1.0
 34
 35
 36 37 1.0 38 1.0 40 1.0
 37
 38
 39
 40
 41
 42

