%chk=DPP-SUB-9-TD-DFT.chk
# td=(nstates=10) cam-b3lyp/6-31+g(d,p) nosymm geom=connectivity

Energy:

0 1
 N                 -1.35157800    1.05355500   -2.63548600
 C                  0.06750600    1.05397900   -2.67242200
 C                 -1.86224900    0.72439500   -1.38190000
 C                 -0.77073600    0.49534200   -0.55508800
 C                  0.42699700    0.68795200   -1.31148500
 C                  1.51851100    0.45889600   -0.48467600
 C                 -0.41124400    0.12930900    0.80584800
 N                  1.00784000    0.12974700    0.76891400
 O                  0.72995300    1.31709300   -3.67236100
 O                 -1.07369100   -0.13381100    1.80578400
 H                  1.57931900   -0.09001800    1.57271400
 H                 -1.92305300    1.27325400   -3.43930700
 C                 -5.59982400    0.79239300   -1.47278600
 C                 -4.29874900    0.93217400   -2.03470100
 C                 -5.28254700    1.80823400   -3.97474000
 H                 -5.09064100    1.77671500   -5.04917100
 C                 -6.50513600    0.98007300   -3.61171200
 H                 -6.37189300   -0.06042900   -3.93686900
 C                 -3.27201200    0.67348000   -1.13591900
 C                 -5.56698700    0.43918100   -0.14939600
 H                 -6.41186000    0.27154700    0.50303400
 S                 -3.94710700    0.26366900    0.43677800
 C                  3.95501400    0.25107300    0.16810800
 C                  5.25608700    0.39084800   -0.39381400
 C                  6.16141500    0.20312400    1.74509800
 H                  6.02820000    1.24362500    2.07026900
 C                  4.93881700   -0.62502000    2.10813200
 H                  4.74692300   -0.59349400    3.18256700
 C                  5.22324600    0.74409300   -1.71719500
 H                  6.06811500    0.91172700   -2.36962900
 C                  2.92827400    0.50979900   -0.73066100
 S                  3.60336200    0.91962600   -2.30335600
 O                 -6.74135800    1.01425100   -2.19650400
 O                 -4.10034400    1.27246700   -3.34619500
 H                 -5.41420800    2.84985000   -3.65650600
 H                 -7.40196800    1.39147200   -4.07988900
 O                  3.75661600   -0.08924200    1.47959800
 O                  6.39762400    0.16895700    0.32989000
 H                  5.07046200   -1.66664000    1.78990400
 H                  7.05824200   -0.20830000    2.21326500

 1 2 1.0 3 1.0 12 1.0
 2 5 1.0 9 2.0
 3 4 1.5 19 1.5
 4 5 1.5 7 1.0
 5 6 1.5
 6 8 1.0 31 1.5
 7 8 1.0 10 2.0
 8 11 1.0
 9
 10
 11
 12
 13 14 1.5 20 2.0 33 1.0
 14 19 1.5 34 1.0
 15 16 1.0 17 1.0 34 1.0 35 1.0
 16
 17 18 1.0 33 1.0 36 1.0
 18
 19 22 1.0
 20 21 1.0 22 1.0
 21
 22
 23 24 1.5 31 1.5 37 1.0
 24 29 2.0 38 1.0
 25 26 1.0 27 1.0 38 1.0 40 1.0
 26
 27 28 1.0 37 1.0 39 1.0
 28
 29 30 1.0 32 1.0
 30
 31 32 1.0
 32
 33
 34
 35
 36
 37
 38
 39
 40

