%chk=DPP-SUB-11-OPT-FREQ-CATION-CONT.chk
# opt=tight freq b3lyp/6-31+g(d,p) geom=connectivity scf=maxcycle=1500

Title Card Required

1 2
 N                  1.15938000    1.78738000   -0.00441500
 C                 -0.25793900    1.79635600   -0.00358400
 C                  1.70456200    0.51792300   -0.00436000
 C                  0.59695700   -0.36859200   -0.00307700
 C                 -0.59695700    0.36859200   -0.00307900
 C                 -1.70456200   -0.51792300   -0.00435900
 C                  0.25793900   -1.79635500   -0.00357500
 N                 -1.15938000   -1.78737900   -0.00440700
 O                 -0.92997700    2.81567800   -0.00326000
 O                  0.92997700   -2.81567800   -0.00324600
 H                 -1.67521100   -2.65542700   -0.00365300
 H                  1.67521200    2.65542800   -0.00366400
 C                 -3.10835300   -0.25456800   -0.00692000
 C                 -3.58966700    1.08382400   -0.00603400
 C                 -4.06778800   -1.30288700   -0.01135900
 C                 -4.94231000    1.34866800   -0.00970800
 H                 -2.88425400    1.90878300   -0.00078300
 C                 -5.41810400   -1.03149000   -0.01683400
 H                 -3.75713600   -2.34276600   -0.01335300
 C                 -5.90590100    0.30458700   -0.01696900
 H                 -5.26584000    2.38289300   -0.00288300
 H                 -6.11685300   -1.86155800   -0.02511900
 C                  3.10835300    0.25456900   -0.00691900
 C                  3.58966700   -1.08382300   -0.00602900
 C                  4.06778800    1.30288700   -0.01136200
 C                  4.94231000   -1.34866800   -0.00970200
 H                  2.88425300   -1.90878200   -0.00077400
 C                  5.41810400    1.03149000   -0.01683700
 H                  3.75713600    2.34276600   -0.01336100
 C                  5.90590100   -0.30458700   -0.01696700
 H                  5.26584000   -2.38289200   -0.00287200
 H                  6.11685300    1.86155800   -0.02512500
 C                 -7.31782000    0.59361300   -0.02404500
 C                 -7.94666400    1.83787800   -0.08270700
 S                 -8.53090100   -0.67736800    0.05022200
 C                 -9.34740000    1.76845200   -0.07531300
 H                 -7.40634100    2.77428500   -0.14746600
 C                 -9.84513700    0.46877000   -0.01243100
 H                 -9.98658500    2.63971500   -0.14610500
 C                  7.31782000   -0.59361300   -0.02404400
 C                  7.94666400   -1.83787800   -0.08270800
 S                  8.53090200    0.67736800    0.05022600
 C                  9.34739900   -1.76845300   -0.07531500
 H                  7.40634000   -2.77428500   -0.14747000
 C                  9.84513700   -0.46877100   -0.01243100
 H                  9.98658400   -2.63971600   -0.14610900
 C                 11.24026500   -0.03718200    0.00800100
 C                 11.61293800    1.26888700   -0.37203400
 C                 12.25178300   -0.93466000    0.41219800
 C                 12.94840600    1.66168200   -0.35089300
 H                 10.85702900    1.97243900   -0.70848500
 C                 13.58604700   -0.53792400    0.42912500
 H                 11.98950800   -1.93631300    0.73628100
 C                 13.94078000    0.76046000    0.04814800
 H                 13.21678200    2.66892200   -0.65376700
 H                 14.35019300   -1.23964000    0.74859500
 H                 14.98185500    1.06746300    0.06279000
 C                -11.24026400    0.03718100    0.00800100
 C                -11.61293900   -1.26888500   -0.37204200
 C                -12.25178200    0.93465700    0.41220600
 C                -12.94840700   -1.66168000   -0.35090100
 H                -10.85703000   -1.97243500   -0.70849900
 C                -13.58604600    0.53792100    0.42913300
 H                -11.98950600    1.93630800    0.73629500
 C                -13.94077900   -0.76046000    0.04814800
 H                -13.21678400   -2.66891800   -0.65378100
 H                -14.35019100    1.23963500    0.74860800
 H                -14.98185500   -1.06746300    0.06278900

 1 2 1.0 3 1.5 12 1.0
 2 5 1.0 9 2.0
 3 4 1.5 23 1.5
 4 5 1.5 7 1.0
 5 6 1.5
 6 8 1.5 13 1.5
 7 8 1.0 10 2.0
 8 11 1.0
 9
 10
 11
 12
 13 14 1.5 15 1.5
 14 16 2.0 17 1.0
 15 18 2.0 19 1.0
 16 20 1.5 21 1.0
 17
 18 20 1.5 22 1.0
 19
 20 33 1.5
 21
 22
 23 24 1.5 25 1.5
 24 26 2.0 27 1.0
 25 28 2.0 29 1.0
 26 30 1.5 31 1.0
 27
 28 30 1.5 32 1.0
 29
 30 40 1.5
 31
 32
 33 34 1.5 35 1.0
 34 36 1.5 37 1.0
 35 38 1.0
 36 38 1.5 39 1.0
 37
 38 58 1.0
 39
 40 41 1.5 42 1.0
 41 43 1.5 44 1.0
 42 45 1.0
 43 45 1.5 46 1.0
 44
 45 47 1.0
 46
 47 48 1.5 49 1.5
 48 50 1.5 51 1.0
 49 52 1.5 53 1.0
 50 54 1.5 55 1.0
 51
 52 54 1.5 56 1.0
 53
 54 57 1.0
 55
 56
 57
 58 59 1.5 60 1.5
 59 61 1.5 62 1.0
 60 63 1.5 64 1.0
 61 65 1.5 66 1.0
 62
 63 65 1.5 67 1.0
 64
 65 68 1.0
 66
 67
 68

