%nprocshared=6
%chk=G:\Meu Drive\POS-DOC-IME\SUBSTITUINTES-DOADORES\DPP-substituido\DPP-SUB-8\DPP-SUB-8-CATION-cont.chk
# opt=tight freq b3lyp/6-31+g(d,p) geom=connectivity

Energy:

1 2
 N                 -1.61394500    1.40734700   -0.00010600
 C                 -0.24495400    1.79863200   -0.00023300
 C                 -1.78463900    0.05759800    0.00007700
 C                 -0.47007800   -0.51283500    0.00008800
 C                  0.47007800    0.51283500   -0.00009400
 C                  1.78463900   -0.05759800   -0.00007900
 C                  0.24495400   -1.79863200    0.00022700
 N                  1.61394500   -1.40734700    0.00010600
 O                  0.13334500    2.95479800   -0.00039800
 O                 -0.13334500   -2.95479800    0.00039400
 H                  2.40813400   -2.05195000    0.00015000
 H                 -2.40813400    2.05195000   -0.00014500
 C                  4.28100900   -0.19329800   -0.00018400
 C                  5.52755700    0.46995600   -0.00033200
 C                  5.61792800    1.86664300   -0.00052000
 H                  6.58164500    2.36564100   -0.00063300
 C                  4.43435800    2.60832900   -0.00055900
 H                  4.48272200    3.69178700   -0.00070300
 C                  3.18690200    1.98018300   -0.00041500
 H                  2.28724300    2.58712300   -0.00045100
 C                  3.07526300    0.57207300   -0.00022500
 N                  4.35473600   -1.57175500   -0.00000900
 C                 -5.52755700   -0.46995600    0.00033500
 C                 -4.28100900    0.19329800    0.00018400
 C                 -3.07526300   -0.57207300    0.00022500
 C                 -3.18690200   -1.98018300    0.00041900
 H                 -2.28724300   -2.58712300    0.00045500
 C                 -4.43435800   -2.60832900    0.00056600
 H                 -4.48272200   -3.69178700    0.00071300
 C                 -5.61792800   -1.86664300    0.00052700
 H                 -6.58164500   -2.36564100    0.00064200
 N                 -4.35473600    1.57175500    0.00000500
 C                 -5.59744000    1.96691100    0.00001700
 H                 -5.88873900    3.01113400   -0.00010600
 C                  5.59744000   -1.96691100   -0.00001800
 H                  5.88873900   -3.01113400    0.00010300
 S                 -6.81169700    0.71742500    0.00023800
 S                  6.81169700   -0.71742500   -0.00023800

 1 2 1.0 3 1.5 12 1.0
 2 5 1.0 9 2.0
 3 4 1.5 25 1.5
 4 5 1.5 7 1.0
 5 6 1.5
 6 8 1.5 21 1.5
 7 8 1.0 10 2.0
 8 11 1.0
 9
 10
 11
 12
 13 14 1.5 21 1.5 22 1.5
 14 15 1.5 38 1.0
 15 16 1.0 17 1.5
 16
 17 18 1.0 19 1.5
 18
 19 20 1.0 21 1.5
 20
 21
 22 35 2.0
 23 24 1.5 30 1.5 37 1.0
 24 25 1.5 32 1.5
 25 26 1.5
 26 27 1.0 28 1.5
 27
 28 29 1.0 30 1.5
 29
 30 31 1.0
 31
 32 33 2.0
 33 34 1.0 37 1.0
 34
 35 36 1.0 38 1.0
 36
 37
 38

